minizinc/sudoku_problems2/sudoku_p56.dzn
%
% sudoku_p56.dzn
% See http://www.hakank.org/minizinc/sudoku_gcc.mzn
% 
% This problem is problem 56 from
% Gecode's sudoku.cpp
% http://www.gecode.org/gecode-doc-latest/sudoku_8cpp-source.html
% 
x = array2d(1..n, 1..n, [   
% http://janko.at/Raetsel/Sudoku/503.a.htm
% 56
  7, 11,  _,  _,  9, 12,  _,  3,  _,  _,  6,  _, 10,  _,  2, 14,
  4,  _,  2,  _,  _,  _,  6,  7, 10,  _,  _,  5,  3,  _,  _, 13,
  _,  _,  _,  _,  _, 10, 13, 14,  _, 12, 11,  _,  4,  _,  5,  _,
 10, 13,  8,  _,  _,  _,  _, 11,  7,  _, 15,  _,  _,  _,  _,  _,
  _, 12,  _,  _,  _,  1,  _, 10,  _,  9,  _,  _,  _,  _,  _,  8,
 15,  _, 14,  8,  _,  _,  _, 12,  _,  4,  _, 13,  _,  6,  _,  2,
  _,  _, 13,  _,  5,  9,  _,  _,  _,  _,  _,  _,  _,  1, 10,  _,
  _,  1,  _,  2,  _,  _,  _,  _,  _,  _,  7, 15, 11, 13, 12,  3,
 11, 15,  6, 14, 12,  4,  _,  _,  _,  _,  _,  _,  2,  _,  7,  _,
  _,  5,  3,  _,  _,  _,  _,  _,  _,  _, 12,  2,  _, 14,  _,  _,
 13,  _, 16,  _,  2,  _, 10,  _,  5,  _,  _,  _, 15,  3,  _, 12,
  2,  _,  _,  _,  _,  _,  1,  _, 11,  _,  3,  _,  _,  _,  8,  _,
  _,  _,  _,  _,  _, 15,  _,  4,  3,  _,  _,  _,  _, 12, 13,  7,
  _,  8,  _, 16,  _, 14,  7,  _, 12,  2,  5,  _,  _,  _,  _,  _,
 12,  _,  _, 13, 16,  _,  _,  1, 15,  7,  _,  _,  _,  2,  _, 10,
 14,  7,  _, 10,  _,  6,  _,  _,  9,  _,  1,  8,  _,  _, 11,  5
]);

n = 16;


